experiments/macc-discriminating/detailed-output/inst-1-601225362.dzn

A = 2;
T = 17;
X = 3;
Y = 3;
Z = 3;
building = array2d(0..2, 0..2, [0, 0, 0, 0, 1, 0, 0, 0, 0]);
